TOUR_SECTION
10
193
3
46
200
143
87
145
90
94
188
109
19
34
125
63
76
52
60
104
31
68
83
180
130
37
44
168
49
36
183
4
141
67
13
147
106
153
41
155
5
69
121
43
119
82
112
108
39
173
196
80
157
101
139
14
149
50
198
132
102
6
140
95
133
179
186
61
138
158
38
65
182
15
151
192
99
2
126
9
191
78
86
164
144
128
72
51
70
148
40
79
120
118
116
175
53
184
105
42
187
124
48
26
71
165
127
57
189
123
81
194
146
77
1
177
199
11
21
92
100
27
115
174
56
84
161
30
75
85
137
114
62
167
152
103
171
29
107
28
25
96
88
172
89
24
163
12
59
20
197
185
64
159
160
156
91
129
150
110
169
181
113
134
74
23
18
176
97
135
195
162
35
98
66
22
58
73
178
45
166
117
154
32
47
131
8
122
111
170
93
7
136
54
16
142
55
190
33
17
-1
EOF